VALUE 1900469
3 169
4 171
7 163
9 156
11 133
13 131
14 158
15 17
14 16
17 18
16 18
20 108
21 23
23 25
25 118
27 30
29 109
29 30
21 32
38 88
40 79
43 89
45 91
49 78
43 51
49 55
4 59
23 62
51 78
79 81
38 81
27 88
45 89
91 92
92 93
79 93
103 121
108 110
109 111
110 116
111 114
114 123
116 120
114 118
120 133
121 126
103 123
13 126
15 131
18 133
156 157
157 158
7 158
163 165
165 166
166 167
167 168
3 168
169 170
4 170
7 172
9 173
11 174
14 175
16 176
18 177
20 178
21 179
62 180
25 181
29 182
32 183
38 184
40 185
45 186
51 187
55 188
59 189

